p cnf 127 465
c p weight -9 1 0
c p weight 9 -1 0
c p weight 13 6.12323399573676603586882014729198302312846062338790031898128063403419218957424163818359375E-17 0
c p weight -13 1 0
c p weight 14 1 0
c p weight -14 1 0
c p weight -11 1 0
c p weight 11 -1 0
c p weight -15 1 0
c p weight 15 -1 0
c p weight -17 1 0
c p weight 17 -1 0
c p weight 21 6.12323399573676603586882014729198302312846062338790031898128063403419218957424163818359375E-17 0
c p weight -21 1 0
c p weight 22 1 0
c p weight -22 1 0
c p weight -19 1 0
c p weight 19 -1 0
c p weight -23 1 0
c p weight 23 -1 0
c p weight 27 0.70710678118654752440084436210485 0
c p weight -27 1 0
c p weight -25 1 0
c p weight 25 -1 0
c p weight -28 1 0
c p weight 28 -1 0
c p weight 32 6.12323399573676603586882014729198302312846062338790031898128063403419218957424163818359375E-17 0
c p weight -32 1 0
c p weight 33 1 0
c p weight -33 1 0
c p weight -30 1 0
c p weight 30 -1 0
c p weight -34 1 0
c p weight 34 -1 0
c p weight -36 1 0
c p weight 36 -1 0
c p weight -37 1 0
c p weight 37 -1 0
c p weight -39 1 0
c p weight 39 -1 0
c p weight -42 1 0
c p weight 42 -1 0
c p weight -44 1 0
c p weight 44 -1 0
c p weight -47 1 0
c p weight 47 -1 0
c p weight -49 1 0
c p weight 49 -1 0
c p weight -52 1 0
c p weight 52 -1 0
c p weight -55 1 0
c p weight 55 -1 0
c p weight -58 1 0
c p weight 58 -1 0
c p weight 62 6.12323399573676603586882014729198302312846062338790031898128063403419218957424163818359375E-17 0
c p weight -62 1 0
c p weight 63 1 0
c p weight -63 1 0
c p weight -60 1 0
c p weight 60 -1 0
c p weight -64 1 0
c p weight 64 -1 0
c p weight -66 1 0
c p weight 66 -1 0
c p weight 71 0.70710678118654752440084436210485 0
c p weight -71 1 0
c p weight -69 1 0
c p weight 69 -1 0
c p weight -72 1 0
c p weight 72 -1 0
c p weight 77 0.70710678118654752440084436210485 0
c p weight -77 1 0
c p weight -75 1 0
c p weight 75 -1 0
c p weight -78 1 0
c p weight 78 -1 0
c p weight 82 6.12323399573676603586882014729198302312846062338790031898128063403419218957424163818359375E-17 0
c p weight -82 1 0
c p weight 83 1 0
c p weight -83 1 0
c p weight -80 1 0
c p weight 80 -1 0
c p weight -84 1 0
c p weight 84 -1 0
c p weight 88 0.9238795325112867384831361050601117312908172607421875 0
c p weight -88 1 0
c p weight 89 -0.382683432365089781779232680491986684501171112060546875 0
c p weight -89 1 0
c p weight -86 1 0
c p weight 86 -1 0
c p weight -90 1 0
c p weight 90 -1 0
c p weight 95 0.9238795325112867384831361050601117312908172607421875 0
c p weight -95 1 0
c p weight 96 0.382683432365089781779232680491986684501171112060546875 0
c p weight -96 1 0
c p weight -93 1 0
c p weight 93 -1 0
c p weight -97 1 0
c p weight 97 -1 0
c p weight 102 0.9238795325112867384831361050601117312908172607421875 0
c p weight -102 1 0
c p weight 103 -0.382683432365089781779232680491986684501171112060546875 0
c p weight -103 1 0
c p weight -100 1 0
c p weight 100 -1 0
c p weight 106 0.70710678118654752440084436210485 0
c p weight -106 1 0
c p weight -104 1 0
c p weight 104 -1 0
c p weight -107 1 0
c p weight 107 -1 0
c p weight 112 0.70710678118654752440084436210485 0
c p weight -112 1 0
c p weight -110 1 0
c p weight 110 -1 0
c p weight -113 1 0
c p weight 113 -1 0
c p weight 118 0.70710678118654752440084436210485 0
c p weight -118 1 0
c p weight -116 1 0
c p weight 116 -1 0
c p weight -119 1 0
c p weight 119 -1 0
c p weight 123 6.12323399573676603586882014729198302312846062338790031898128063403419218957424163818359375E-17 0
c p weight -123 1 0
c p weight 124 1 0
c p weight -124 1 0
c p weight -121 1 0
c p weight 121 -1 0
c p weight -125 1 0
c p weight 125 -1 0
c p weight 127 0.5 0
c p weight -127 1 0
127 0
-7 0
-5 0
-3 0
-1 0
-9 1 0
-9 2 0
9 -1 -2 0
10 1 -2 0
10 -1 2 0
-10 1 2 0
-10 -1 -2 0
-11 12 0
-11 10 0
-11 -1 0
11 -12 1 -10 0
12 -1 10 0
-12 1 10 0
-13 10 0
12 -13 -1 0
-12 -13 1 0
12 13 1 -10 0
-12 13 -1 -10 0
-14 10 0
12 -14 1 0
-12 -14 -1 0
12 14 -1 -10 0
-12 14 1 -10 0
-15 12 0
-15 10 0
15 -12 -10 0
16 12 -10 0
16 -12 10 0
-16 12 10 0
-16 -12 -10 0
-17 3 0
-17 4 0
17 -3 -4 0
18 3 -4 0
18 -3 4 0
-18 3 4 0
-18 -3 -4 0
-19 20 0
-19 18 0
-19 -3 0
19 -20 3 -18 0
20 -3 18 0
-20 3 18 0
-21 18 0
20 -21 -3 0
-20 -21 3 0
20 21 3 -18 0
-20 21 -3 -18 0
-22 18 0
20 -22 3 0
-20 -22 -3 0
20 22 -3 -18 0
-20 22 3 -18 0
-23 20 0
-23 18 0
23 -20 -18 0
24 20 -18 0
24 -20 18 0
-24 20 18 0
-24 -20 -18 0
-25 26 0
-25 20 0
-25 -24 0
25 -26 -20 24 0
26 20 -24 0
-26 20 24 0
27 -20 0
-27 20 0
-28 5 0
-28 6 0
28 -5 -6 0
29 5 -6 0
29 -5 6 0
-29 5 6 0
-29 -5 -6 0
-30 31 0
-30 29 0
-30 -5 0
30 -31 5 -29 0
31 -5 29 0
-31 5 29 0
-32 29 0
31 -32 -5 0
-31 -32 5 0
31 32 5 -29 0
-31 32 -5 -29 0
-33 29 0
31 -33 5 0
-31 -33 -5 0
31 33 -5 -29 0
-31 33 5 -29 0
-34 31 0
-34 29 0
34 -31 -29 0
35 31 -29 0
35 -31 29 0
-35 31 29 0
-35 -31 -29 0
36 -8 0
-36 8 0
-37 7 0
-37 8 0
37 -7 -8 0
38 7 -8 0
38 -7 8 0
-38 7 8 0
-38 -7 -8 0
-39 7 0
-39 16 0
-39 12 -38 0
-39 -12 38 0
39 -7 12 38 -16 0
39 -7 -12 -38 -16 0
41 7 -12 0
41 -7 12 0
-41 7 12 0
-41 -7 -12 0
40 38 -16 0
40 -38 16 0
-40 38 16 0
-40 -38 -16 0
-42 41 0
-42 -16 0
42 -41 16 0
43 41 -16 0
43 -41 16 0
-43 41 16 0
-43 -41 -16 0
-44 7 0
-44 43 0
-44 41 -40 0
-44 -41 40 0
44 -7 41 40 -43 0
44 -7 -41 -40 -43 0
46 7 -41 0
46 -7 41 0
-46 7 41 0
-46 -7 -41 0
45 40 -43 0
45 -40 43 0
-45 40 43 0
-45 -40 -43 0
-47 46 0
-47 43 0
47 -46 -43 0
48 46 -43 0
48 -46 43 0
-48 46 43 0
-48 -46 -43 0
-49 46 0
-49 35 0
-49 31 -48 0
-49 -31 48 0
49 -46 31 48 -35 0
49 -46 -31 -48 -35 0
51 46 -31 0
51 -46 31 0
-51 46 31 0
-51 -46 -31 0
50 48 -35 0
50 -48 35 0
-50 48 35 0
-50 -48 -35 0
-52 51 0
-52 50 0
-52 46 -35 0
-52 -46 35 0
52 -51 46 35 -50 0
52 -51 -46 -35 -50 0
54 51 -46 0
54 -51 46 0
-54 51 46 0
-54 -51 -46 0
53 35 -50 0
53 -35 50 0
-53 35 50 0
-53 -35 -50 0
-55 54 0
-55 53 0
-55 51 -50 0
-55 -51 50 0
55 -54 51 50 -53 0
55 -54 -51 -50 -53 0
57 54 -51 0
57 -54 51 0
-57 54 51 0
-57 -54 -51 0
56 50 -53 0
56 -50 53 0
-56 50 53 0
-56 -50 -53 0
-58 54 0
-58 56 0
58 -54 -56 0
59 54 -56 0
59 -54 56 0
-59 54 56 0
-59 -54 -56 0
-60 61 0
-60 59 0
-60 -54 0
60 -61 54 -59 0
61 -54 59 0
-61 54 59 0
-62 59 0
61 -62 -54 0
-61 -62 54 0
61 62 54 -59 0
-61 62 -54 -59 0
-63 59 0
61 -63 54 0
-61 -63 -54 0
61 63 -54 -59 0
-61 63 54 -59 0
-64 61 0
-64 59 0
64 -61 -59 0
65 61 -59 0
65 -61 59 0
-65 61 59 0
-65 -61 -59 0
-66 20 0
-66 65 0
-66 61 -26 0
-66 -61 26 0
66 -20 61 26 -65 0
66 -20 -61 -26 -65 0
68 20 -61 0
68 -20 61 0
-68 20 61 0
-68 -20 -61 0
67 26 -65 0
67 -26 65 0
-67 26 65 0
-67 -26 -65 0
-69 68 0
-69 65 0
-69 -70 0
69 70 -68 -65 0
70 68 -65 0
-70 68 65 0
71 -68 0
-71 68 0
-72 20 0
-72 70 0
-72 68 -67 0
-72 -68 67 0
72 -20 68 67 -70 0
72 -20 -68 -67 -70 0
74 20 -68 0
74 -20 68 0
-74 20 68 0
-74 -20 -68 0
73 67 -70 0
73 -67 70 0
-73 67 70 0
-73 -67 -70 0
-75 76 0
-75 74 0
-75 -70 0
75 -76 -74 70 0
76 74 -70 0
-76 74 70 0
77 -74 0
-77 74 0
-78 20 0
-78 73 0
78 -20 -73 0
79 20 -73 0
79 -20 73 0
-79 20 73 0
-79 -20 -73 0
-80 81 0
-80 79 0
-80 -20 0
80 -81 20 -79 0
81 -20 79 0
-81 20 79 0
-82 79 0
81 -82 -20 0
-81 -82 20 0
81 82 20 -79 0
-81 82 -20 -79 0
-83 79 0
81 -83 20 0
-81 -83 -20 0
81 83 -20 -79 0
-81 83 20 -79 0
-84 81 0
-84 79 0
84 -81 -79 0
85 81 -79 0
85 -81 79 0
-85 81 79 0
-85 -81 -79 0
-86 57 0
-86 53 0
-86 -87 0
86 87 -57 -53 0
87 57 -53 0
-87 57 53 0
-88 57 0
87 -88 -53 0
-87 -88 53 0
87 88 -57 53 0
-87 88 -57 -53 0
-89 57 0
87 -89 53 0
-87 -89 -53 0
87 89 -57 -53 0
-87 89 -57 53 0
-90 57 0
-90 76 0
-90 74 -87 0
-90 -74 87 0
90 -57 74 87 -76 0
90 -57 -74 -87 -76 0
92 57 -74 0
92 -57 74 0
-92 57 74 0
-92 -57 -74 0
91 87 -76 0
91 -87 76 0
-91 87 76 0
-91 -87 -76 0
-93 92 0
-93 76 0
-93 -94 0
93 94 -92 -76 0
94 92 -76 0
-94 92 76 0
-95 92 0
94 -95 -76 0
-94 -95 76 0
94 95 -92 76 0
-94 95 -92 -76 0
-96 92 0
94 -96 76 0
-94 -96 -76 0
94 96 -92 -76 0
-94 96 -92 76 0
-97 57 0
-97 94 0
-97 92 -91 0
-97 -92 91 0
97 -57 92 91 -94 0
97 -57 -92 -91 -94 0
99 57 -92 0
99 -57 92 0
-99 57 92 0
-99 -57 -92 0
98 91 -94 0
98 -91 94 0
-98 91 94 0
-98 -91 -94 0
-100 99 0
-100 94 0
-100 -101 0
100 101 -99 -94 0
101 99 -94 0
-101 99 94 0
-102 99 0
101 -102 -94 0
-101 -102 94 0
101 102 -99 94 0
-101 102 -99 -94 0
-103 99 0
101 -103 94 0
-101 -103 -94 0
101 103 -99 -94 0
-101 103 -99 94 0
-104 105 0
-104 57 0
-104 -98 0
104 -105 -57 98 0
105 57 -98 0
-105 57 98 0
106 -57 0
-106 57 0
-107 57 0
-107 85 0
-107 81 -105 0
-107 -81 105 0
107 -57 81 105 -85 0
107 -57 -81 -105 -85 0
109 57 -81 0
109 -57 81 0
-109 57 81 0
-109 -57 -81 0
108 105 -85 0
108 -105 85 0
-108 105 85 0
-108 -105 -85 0
-110 109 0
-110 85 0
-110 -111 0
110 111 -109 -85 0
111 109 -85 0
-111 109 85 0
112 -109 0
-112 109 0
-113 57 0
-113 111 0
-113 109 -108 0
-113 -109 108 0
113 -57 109 108 -111 0
113 -57 -109 -108 -111 0
115 57 -109 0
115 -57 109 0
-115 57 109 0
-115 -57 -109 0
114 108 -111 0
114 -108 111 0
-114 108 111 0
-114 -108 -111 0
-116 117 0
-116 115 0
-116 -111 0
116 -117 -115 111 0
117 115 -111 0
-117 115 111 0
118 -115 0
-118 115 0
-119 57 0
-119 114 0
119 -57 -114 0
120 57 -114 0
120 -57 114 0
-120 57 114 0
-120 -57 -114 0
-121 122 0
-121 120 0
-121 -57 0
121 -122 57 -120 0
122 -57 120 0
-122 57 120 0
-123 120 0
122 -123 -57 0
-122 -123 57 0
122 123 57 -120 0
-122 123 -57 -120 0
-124 120 0
122 -124 57 0
-122 -124 -57 0
122 124 -57 -120 0
-122 124 57 -120 0
-125 122 0
-125 120 0
125 -122 -120 0
126 122 -120 0
126 -122 120 0
-126 122 120 0
-126 -122 -120 0
-99 0
-115 0
-117 0
-122 0
-126 0
-7 0
-45 0
